
Gurobi 9.0.3 (win64) logging started Sat Feb  5 17:52:14 2022

Changed value of parameter LogFile to logs\CRVRP_5-2-7-100_1_6.LOG
   Prev: logs\CRVRP_5-2-7-100_1_5.LOG  Default: 
Changed value of parameter Seed to 589970579
   Prev: 1837994575  Min: 0  Max: 2000000000  Default: 0
Parameter Threads unchanged
   Value: 2  Min: 0  Max: 1024  Default: 0
Parameter TimeLimit unchanged
   Value: 60.0  Min: 0.0  Max: inf  Default: inf
Parameter Symmetry unchanged
   Value: 2  Min: -1  Max: 2  Default: -1
Parameter Cuts unchanged
   Value: 2  Min: -1  Max: 3  Default: -1
Parameter PreDepRow unchanged
   Value: 1  Min: -1  Max: 1  Default: -1
Parameter ScaleFlag unchanged
   Value: 1  Min: -1  Max: 3  Default: -1
Parameter NormAdjust unchanged
   Value: 0  Min: -1  Max: 3  Default: -1
Gurobi Optimizer version 9.0.3 build v9.0.3rc0 (win64)
Optimize a model with 1001 rows, 810 columns and 4006 nonzeros
Model fingerprint: 0x60801deb
Variable types: 32 continuous, 778 integer (522 binary)
Coefficient statistics:
  Matrix range     [1e+00, 1e+06]
  Objective range  [1e+00, 1e+00]
  Bounds range     [1e+00, 1e+04]
  RHS range        [1e+00, 1e+06]
Presolve removed 618 rows and 515 columns
Presolve time: 0.02s
Presolved: 383 rows, 295 columns, 2048 nonzeros
Variable types: 15 continuous, 280 integer (230 binary)

Root relaxation: objective 3.141848e+02, 269 iterations, 0.00 seconds

    Nodes    |    Current Node    |     Objective Bounds      |     Work
 Expl Unexpl |  Obj  Depth IntInf | Incumbent    BestBd   Gap | It/Node Time

     0     0  314.18479    0   40          -  314.18479      -     -    0s
H    0     0                    1501.6058911  314.18479  79.1%     -    0s
H    0     0                    1337.3065942  314.18479  76.5%     -    0s
H    0     0                     959.6250217  314.18479  67.3%     -    0s
     0     0  340.70795    0   49  959.62502  340.70795  64.5%     -    0s
H    0     0                     959.6250216  340.70795  64.5%     -    0s
     0     0  354.12970    0   60  959.62502  354.12970  63.1%     -    0s
H    0     0                     803.5819864  354.12970  55.9%     -    0s
     0     0  354.12970    0   60  803.58199  354.12970  55.9%     -    0s
     0     0  357.29736    0   48  803.58199  357.29736  55.5%     -    0s
H    0     0                     701.9168052  357.29736  49.1%     -    0s
H    0     0                     701.9168051  357.29736  49.1%     -    0s
     0     0  357.29736    0   48  701.91681  357.29736  49.1%     -    0s
     0     0  361.08099    0   39  701.91681  361.08099  48.6%     -    0s
H    0     0                     660.6612759  361.08099  45.3%     -    0s
     0     0  361.66781    0   57  660.66128  361.66781  45.3%     -    0s
     0     0  361.69167    0   61  660.66128  361.69167  45.3%     -    0s
     0     0  366.52302    0   47  660.66128  366.52302  44.5%     -    0s
H    0     0                     652.1882625  366.52302  43.8%     -    0s
     0     0  366.62061    0   53  652.18826  366.62061  43.8%     -    0s
     0     0  366.62061    0   55  652.18826  366.62061  43.8%     -    0s
     0     0  367.12397    0   56  652.18826  367.12397  43.7%     -    0s
H    0     0                     616.2982620  367.12397  40.4%     -    0s
     0     0  367.19513    0   52  616.29826  367.19513  40.4%     -    0s
     0     0  367.19513    0   52  616.29826  367.19513  40.4%     -    0s
     0     0  367.20019    0   54  616.29826  367.20019  40.4%     -    0s
     0     0  367.20019    0   49  616.29826  367.20019  40.4%     -    0s
H    0     0                     517.0923252  367.20019  29.0%     -    0s
     0     2  367.20126    0   41  517.09233  367.20126  29.0%     -    0s
H    3     6                     502.7506074  367.54488  26.9%  57.0    0s
*   59    43              20     479.8527302  381.66848  20.5%  22.8    0s
H  139    49                     479.0192009  404.67387  15.5%  18.7    0s
*  144    49              15     452.4321143  404.67387  10.6%  18.6    0s

Cutting planes:
  Gomory: 14
  Cover: 3
  Implied bound: 15
  Projected implied bound: 1
  Clique: 1
  MIR: 33
  Flow cover: 58
  Inf proof: 3
  RLT: 64
  Relax-and-lift: 12

Explored 304 nodes (5525 simplex iterations) in 0.75 seconds
Thread count was 2 (of 8 available processors)

Solution count 10: 452.432 479.019 479.853 ... 803.582

Optimal solution found (tolerance 1.00e-04)
Best objective 4.524321143066e+02, best bound 4.524321143066e+02, gap 0.0000%
Discarded solution information
